c CNF generator v0.9
p cnf 10 42
9 7 9 0
8 7 7 0
2 -2 -4 0
-8 9 -5 0
-5 10 -4 0
-1 6 -10 0
6 5 -5 0
1 7 -9 0
5 -2 6 0
10 -7 -1 0
3 4 -6 0
-3 8 9 0
1 -3 -2 0
1 -10 -8 0
-8 -3 8 0
1 1 -2 0
8 4 -6 0
-5 4 1 0
-5 6 -2 0
-5 5 1 0
6 -4 5 0
-6 -10 -5 0
4 1 10 0
3 -10 -3 0
8 -10 -10 0
4 7 -10 0
-5 9 -8 0
9 -9 8 0
5 -9 9 0
-3 -8 9 0
5 2 1 0
-9 3 -2 0
7 -9 2 0
-10 1 -3 0
-3 9 2 0
7 -3 2 0
-5 9 5 0
2 8 3 0
-7 -9 7 0
10 8 7 0
-8 -2 -4 0
-1 -6 -8 0
